\ENCODING=ISO-8859-1
\Problem name: 

Minimize
 obj: 116370.004289621 w(0) + 127238.810696707 w(1) + 101523.321521891 w(2)
      + 15246542.8060734 x(0,0) + 10765928.9405632 x(0,1)
      + 28954623.5802926 x(0,2) + 4276897.37757869 x(1,0)
      + 5330362.13762007 x(1,1) + 34638719.9945547 x(1,2)
      + 26381828.1181046 x(2,0) + 22754490.8150891 x(2,1)
      + 7466098.35810295 x(2,2) + 16024560.2445594 x(3,0)
      + 14879032.4259903 x(3,1) + 12743679.9457808 x(3,2)
      + 1885757.80314966 x(4,0) + 2152022.1457361 x(4,1)
      + 24497983.7201382 x(4,2) + 11563032.8831916 x(5,0)
      + 9087077.7413147 x(5,1) + 17460905.3256095 x(5,2)
      + 13348722.2078656 x(6,0) + 12683952.8927416 x(6,1)
      + 28487155.8428338 x(6,2) + 3543634.56095977 x(7,0)
      + 3388885.29373074 x(7,1) + 24494421.6200429 x(7,2)
      + 15766933.2577835 x(8,0) + 16542818.1384171 x(8,1)
      + 22141545.6960536 x(8,2) + 18760877.7655824 x(9,0)
      + 15475892.8409146 x(9,1) + 23295703.511513 x(9,2)
      + 8881665.16657733 x(10,0) + 7954895.41949098 x(10,1)
      + 16140541.5001007 x(10,2) + 574.632401199916 y(0,0)
      + 218.195095503055 y(0,1) + 2617.02493342418 y(0,2)
      + 5201.39234834648 y(0,3) + 229.281198142199 y(1,0)
      + 3058.62290017379 y(1,2) + 7066.2122331307 y(1,3)
      + 8441.19610228055 y(2,0) + 7824.14816123277 y(2,1)
      + 7669.83957507159 y(2,2)
Subject To
 c1:  - 12384 w(0) + 2871 x(0,0) + 2973 x(1,0) + 1905 x(2,0) + 1920 x(3,0)
      + 1754 x(4,0) + 2570 x(5,0) + 2028 x(6,0) + 1911 x(7,0) + 2529 x(8,0)
      + 1633 x(9,0) + 1372 x(10,0) <= 0
 c2:  - 13052 w(1) + 2871 x(0,1) + 2973 x(1,1) + 1905 x(2,1) + 1920 x(3,1)
      + 1754 x(4,1) + 2570 x(5,1) + 2028 x(6,1) + 1911 x(7,1) + 2529 x(8,1)
      + 1633 x(9,1) + 1372 x(10,1) <= 0
 c3:  - 16101 w(2) + 2871 x(0,2) + 2973 x(1,2) + 1905 x(2,2) + 1920 x(3,2)
      + 1754 x(4,2) + 2570 x(5,2) + 2028 x(6,2) + 1911 x(7,2) + 2529 x(8,2)
      + 1633 x(9,2) + 1372 x(10,2) <= 0
 c4:  2871 x(0,0) + 2973 x(1,0) + 1905 x(2,0) + 1920 x(3,0) + 1754 x(4,0)
      + 2570 x(5,0) + 2028 x(6,0) + 1911 x(7,0) + 2529 x(8,0) + 1633 x(9,0)
      + 1372 x(10,0) - y(0,0) - y(0,1) - y(0,2) - y(0,3)  = 0
 c5:  2871 x(0,1) + 2973 x(1,1) + 1905 x(2,1) + 1920 x(3,1) + 1754 x(4,1)
      + 2570 x(5,1) + 2028 x(6,1) + 1911 x(7,1) + 2529 x(8,1) + 1633 x(9,1)
      + 1372 x(10,1) - y(1,0) - y(1,1) - y(1,2) - y(1,3)  = 0
 c6:  2871 x(0,2) + 2973 x(1,2) + 1905 x(2,2) + 1920 x(3,2) + 1754 x(4,2)
      + 2570 x(5,2) + 2028 x(6,2) + 1911 x(7,2) + 2529 x(8,2) + 1633 x(9,2)
      + 1372 x(10,2) - y(2,0) - y(2,1) - y(2,2) - y(2,3)  = 0
 c7:  y(0,0) + y(1,0) + y(2,0) >= 2664
 c8:  y(0,1) + y(1,1) + y(2,1) >= 2638
 c9:  y(0,2) + y(1,2) + y(2,2) >= 2536
 c10: y(0,3) + y(1,3) + y(2,3) >= 3397
 c11: x(0,0) + x(0,1) + x(0,2)  = 1
 c12: x(1,0) + x(1,1) + x(1,2)  = 1
 c13: x(2,0) + x(2,1) + x(2,2)  = 1
 c14: x(3,0) + x(3,1) + x(3,2)  = 1
 c15: x(4,0) + x(4,1) + x(4,2)  = 1
 c16: x(5,0) + x(5,1) + x(5,2)  = 1
 c17: x(6,0) + x(6,1) + x(6,2)  = 1
 c18: x(7,0) + x(7,1) + x(7,2)  = 1
 c19: x(8,0) + x(8,1) + x(8,2)  = 1
 c20: x(9,0) + x(9,1) + x(9,2)  = 1
 c21: x(10,0) + x(10,1) + x(10,2)  = 1
Bounds
 0 <= w(0) <= 1
 0 <= w(1) <= 1
 0 <= w(2) <= 1
 0 <= x(0,0) <= 1
 0 <= x(0,1) <= 1
 0 <= x(0,2) <= 1
 0 <= x(1,0) <= 1
 0 <= x(1,1) <= 1
 0 <= x(1,2) <= 1
 0 <= x(2,0) <= 1
 0 <= x(2,1) <= 1
 0 <= x(2,2) <= 1
 0 <= x(3,0) <= 1
 0 <= x(3,1) <= 1
 0 <= x(3,2) <= 1
 0 <= x(4,0) <= 1
 0 <= x(4,1) <= 1
 0 <= x(4,2) <= 1
 0 <= x(5,0) <= 1
 0 <= x(5,1) <= 1
 0 <= x(5,2) <= 1
 0 <= x(6,0) <= 1
 0 <= x(6,1) <= 1
 0 <= x(6,2) <= 1
 0 <= x(7,0) <= 1
 0 <= x(7,1) <= 1
 0 <= x(7,2) <= 1
 0 <= x(8,0) <= 1
 0 <= x(8,1) <= 1
 0 <= x(8,2) <= 1
 0 <= x(9,0) <= 1
 0 <= x(9,1) <= 1
 0 <= x(9,2) <= 1
 0 <= x(10,0) <= 1
 0 <= x(10,1) <= 1
 0 <= x(10,2) <= 1
Binaries
 w(0)  w(1)  w(2)  x(0,0)  x(0,1)  x(0,2)  x(1,0)  x(1,1)  x(1,2)  x(2,0) 
 x(2,1)  x(2,2)  x(3,0)  x(3,1)  x(3,2)  x(4,0)  x(4,1)  x(4,2)  x(5,0) 
 x(5,1)  x(5,2)  x(6,0)  x(6,1)  x(6,2)  x(7,0)  x(7,1)  x(7,2)  x(8,0) 
 x(8,1)  x(8,2)  x(9,0)  x(9,1)  x(9,2)  x(10,0)  x(10,1)  x(10,2) 
End
